p cnf 386 460
-3 17 19 21 22 0
-3 17 19 21 -22 0
-3 17 19 -21 23 0
-3 17 19 -21 -23 0
-8 19 -1 24 25 0
-8 19 -1 24 -25 0
-8 19 -1 -24 26 0
-8 19 -1 -24 -26 0
1 -16 -14 27 28 0
1 -16 -14 27 -28 0
1 -16 -14 -27 29 0
1 -16 -14 -27 -29 0
-1 17 -10 30 31 0
-1 17 -10 30 -31 0
-1 17 -10 -30 32 0
-1 17 -10 -30 -32 0
-12 -7 -11 33 34 0
-12 -7 -11 33 -34 0
-12 -7 -11 -33 35 0
-12 -7 -11 -33 -35 0
-2 -9 -12 36 37 0
-2 -9 -12 36 -37 0
-2 -9 -12 -36 38 0
-2 -9 -12 -36 -38 0
-4 -14 15 39 40 0
-4 -14 15 39 -40 0
-4 -14 15 -39 41 0
-4 -14 15 -39 -41 0
-18 -17 -2 42 43 0
-18 -17 -2 42 -43 0
-18 -17 -2 -42 44 0
-18 -17 -2 -42 -44 0
-10 -18 -20 45 46 0
-10 -18 -20 45 -46 0
-10 -18 -20 -45 47 0
-10 -18 -20 -45 -47 0
8 -20 -6 48 49 0
8 -20 -6 48 -49 0
8 -20 -6 -48 50 0
8 -20 -6 -48 -50 0
9 -1 10 51 52 0
9 -1 10 51 -52 0
9 -1 10 -51 53 0
9 -1 10 -51 -53 0
8 9 19 54 55 0
8 9 19 54 -55 0
8 9 19 -54 56 0
8 9 19 -54 -56 0
-2 -7 13 57 58 0
-2 -7 13 57 -58 0
-2 -7 13 -57 59 0
-2 -7 13 -57 -59 0
-16 10 -2 60 61 0
-16 10 -2 60 -61 0
-16 10 -2 -60 62 0
-16 10 -2 -60 -62 0
20 -3 -2 63 64 0
20 -3 -2 63 -64 0
20 -3 -2 -63 65 0
20 -3 -2 -63 -65 0
-15 -9 19 66 67 0
-15 -9 19 66 -67 0
-15 -9 19 -66 68 0
-15 -9 19 -66 -68 0
20 -10 -11 69 70 0
20 -10 -11 69 -70 0
20 -10 -11 -69 71 0
20 -10 -11 -69 -71 0
6 -1 5 72 73 0
6 -1 5 72 -73 0
6 -1 5 -72 74 0
6 -1 5 -72 -74 0
19 -9 8 75 76 0
19 -9 8 75 -76 0
19 -9 8 -75 77 0
19 -9 8 -75 -77 0
-9 14 5 78 79 0
-9 14 5 78 -79 0
-9 14 5 -78 80 0
-9 14 5 -78 -80 0
10 -4 12 81 82 0
10 -4 12 81 -82 0
10 -4 12 -81 83 0
10 -4 12 -81 -83 0
-14 13 -4 84 85 0
-14 13 -4 84 -85 0
-14 13 -4 -84 86 0
-14 13 -4 -84 -86 0
3 7 20 87 88 0
3 7 20 87 -88 0
3 7 20 -87 89 0
3 7 20 -87 -89 0
-5 16 -14 90 91 0
-5 16 -14 90 -91 0
-5 16 -14 -90 92 0
-5 16 -14 -90 -92 0
4 1 19 93 94 0
4 1 19 93 -94 0
4 1 19 -93 95 0
4 1 19 -93 -95 0
-12 15 -6 96 97 0
-12 15 -6 96 -97 0
-12 15 -6 -96 98 0
-12 15 -6 -96 -98 0
-10 12 -16 99 100 0
-10 12 -16 99 -100 0
-10 12 -16 -99 101 0
-10 12 -16 -99 -101 0
3 -7 4 102 103 0
3 -7 4 102 -103 0
3 -7 4 -102 104 0
3 -7 4 -102 -104 0
-5 6 3 105 106 0
-5 6 3 105 -106 0
-5 6 3 -105 107 0
-5 6 3 -105 -107 0
-12 3 -4 108 109 0
-12 3 -4 108 -109 0
-12 3 -4 -108 110 0
-12 3 -4 -108 -110 0
-11 -2 -6 111 112 0
-11 -2 -6 111 -112 0
-11 -2 -6 -111 113 0
-11 -2 -6 -111 -113 0
15 8 -5 114 115 0
15 8 -5 114 -115 0
15 8 -5 -114 116 0
15 8 -5 -114 -116 0
-8 -6 18 117 118 0
-8 -6 18 117 -118 0
-8 -6 18 -117 119 0
-8 -6 18 -117 -119 0
20 19 -16 120 121 0
20 19 -16 120 -121 0
20 19 -16 -120 122 0
20 19 -16 -120 -122 0
-8 1 2 123 124 0
-8 1 2 123 -124 0
-8 1 2 -123 125 0
-8 1 2 -123 -125 0
3 12 9 126 127 0
3 12 9 126 -127 0
3 12 9 -126 128 0
3 12 9 -126 -128 0
-2 -16 -6 129 130 0
-2 -16 -6 129 -130 0
-2 -16 -6 -129 131 0
-2 -16 -6 -129 -131 0
19 -5 15 132 133 0
19 -5 15 132 -133 0
19 -5 15 -132 134 0
19 -5 15 -132 -134 0
-10 19 -20 135 136 0
-10 19 -20 135 -136 0
-10 19 -20 -135 137 0
-10 19 -20 -135 -137 0
-20 9 19 138 139 0
-20 9 19 138 -139 0
-20 9 19 -138 140 0
-20 9 19 -138 -140 0
13 1 16 141 142 0
13 1 16 141 -142 0
13 1 16 -141 143 0
13 1 16 -141 -143 0
2 -9 -18 144 145 0
2 -9 -18 144 -145 0
2 -9 -18 -144 146 0
2 -9 -18 -144 -146 0
-5 18 1 147 148 0
-5 18 1 147 -148 0
-5 18 1 -147 149 0
-5 18 1 -147 -149 0
4 17 19 150 151 0
4 17 19 150 -151 0
4 17 19 -150 152 0
4 17 19 -150 -152 0
2 -8 16 153 154 0
2 -8 16 153 -154 0
2 -8 16 -153 155 0
2 -8 16 -153 -155 0
7 -12 -5 156 157 0
7 -12 -5 156 -157 0
7 -12 -5 -156 158 0
7 -12 -5 -156 -158 0
6 15 -1 159 160 0
6 15 -1 159 -160 0
6 15 -1 -159 161 0
6 15 -1 -159 -161 0
20 7 16 162 163 0
20 7 16 162 -163 0
20 7 16 -162 164 0
20 7 16 -162 -164 0
-1 -9 19 165 166 0
-1 -9 19 165 -166 0
-1 -9 19 -165 167 0
-1 -9 19 -165 -167 0
6 -14 -16 168 169 0
6 -14 -16 168 -169 0
6 -14 -16 -168 170 0
6 -14 -16 -168 -170 0
6 -1 11 171 172 0
6 -1 11 171 -172 0
6 -1 11 -171 173 0
6 -1 11 -171 -173 0
-9 -12 3 174 175 0
-9 -12 3 174 -175 0
-9 -12 3 -174 176 0
-9 -12 3 -174 -176 0
-11 1 -18 177 178 0
-11 1 -18 177 -178 0
-11 1 -18 -177 179 0
-11 1 -18 -177 -179 0
11 15 19 180 181 0
11 15 19 180 -181 0
11 15 19 -180 182 0
11 15 19 -180 -182 0
-16 -1 17 183 184 0
-16 -1 17 183 -184 0
-16 -1 17 -183 185 0
-16 -1 17 -183 -185 0
-16 -1 -14 186 187 0
-16 -1 -14 186 -187 0
-16 -1 -14 -186 188 0
-16 -1 -14 -186 -188 0
-7 10 -18 189 190 0
-7 10 -18 189 -190 0
-7 10 -18 -189 191 0
-7 10 -18 -189 -191 0
-8 4 -16 192 193 0
-8 4 -16 192 -193 0
-8 4 -16 -192 194 0
-8 4 -16 -192 -194 0
-9 -4 15 195 196 0
-9 -4 15 195 -196 0
-9 -4 15 -195 197 0
-9 -4 15 -195 -197 0
-14 12 -1 198 199 0
-14 12 -1 198 -199 0
-14 12 -1 -198 200 0
-14 12 -1 -198 -200 0
14 -1 -16 201 202 0
14 -1 -16 201 -202 0
14 -1 -16 -201 203 0
14 -1 -16 -201 -203 0
-2 6 4 204 205 0
-2 6 4 204 -205 0
-2 6 4 -204 206 0
-2 6 4 -204 -206 0
-19 10 -11 207 208 0
-19 10 -11 207 -208 0
-19 10 -11 -207 209 0
-19 10 -11 -207 -209 0
11 -17 -3 210 211 0
11 -17 -3 210 -211 0
11 -17 -3 -210 212 0
11 -17 -3 -210 -212 0
-5 9 6 213 214 0
-5 9 6 213 -214 0
-5 9 6 -213 215 0
-5 9 6 -213 -215 0
-13 11 -17 216 217 0
-13 11 -17 216 -217 0
-13 11 -17 -216 218 0
-13 11 -17 -216 -218 0
1 -15 14 219 220 0
1 -15 14 219 -220 0
1 -15 14 -219 221 0
1 -15 14 -219 -221 0
-20 -8 11 222 223 0
-20 -8 11 222 -223 0
-20 -8 11 -222 224 0
-20 -8 11 -222 -224 0
5 12 13 225 226 0
5 12 13 225 -226 0
5 12 13 -225 227 0
5 12 13 -225 -227 0
-14 -10 20 228 229 0
-14 -10 20 228 -229 0
-14 -10 20 -228 230 0
-14 -10 20 -228 -230 0
6 -11 18 231 232 0
6 -11 18 231 -232 0
6 -11 18 -231 233 0
6 -11 18 -231 -233 0
6 -15 2 234 235 0
6 -15 2 234 -235 0
6 -15 2 -234 236 0
6 -15 2 -234 -236 0
-6 -20 13 237 238 0
-6 -20 13 237 -238 0
-6 -20 13 -237 239 0
-6 -20 13 -237 -239 0
-4 -6 -15 240 241 0
-4 -6 -15 240 -241 0
-4 -6 -15 -240 242 0
-4 -6 -15 -240 -242 0
6 -5 10 243 244 0
6 -5 10 243 -244 0
6 -5 10 -243 245 0
6 -5 10 -243 -245 0
6 4 -20 246 247 0
6 4 -20 246 -247 0
6 4 -20 -246 248 0
6 4 -20 -246 -248 0
-10 14 -12 249 250 0
-10 14 -12 249 -250 0
-10 14 -12 -249 251 0
-10 14 -12 -249 -251 0
-5 6 4 252 253 0
-5 6 4 252 -253 0
-5 6 4 -252 254 0
-5 6 4 -252 -254 0
-6 2 20 255 256 0
-6 2 20 255 -256 0
-6 2 20 -255 257 0
-6 2 20 -255 -257 0
-2 -11 19 258 259 0
-2 -11 19 258 -259 0
-2 -11 19 -258 260 0
-2 -11 19 -258 -260 0
-20 18 11 261 262 0
-20 18 11 261 -262 0
-20 18 11 -261 263 0
-20 18 11 -261 -263 0
-13 -19 3 264 265 0
-13 -19 3 264 -265 0
-13 -19 3 -264 266 0
-13 -19 3 -264 -266 0
4 18 -11 267 268 0
4 18 -11 267 -268 0
4 18 -11 -267 269 0
4 18 -11 -267 -269 0
9 6 18 270 271 0
9 6 18 270 -271 0
9 6 18 -270 272 0
9 6 18 -270 -272 0
6 -17 14 273 274 0
6 -17 14 273 -274 0
6 -17 14 -273 275 0
6 -17 14 -273 -275 0
-7 -16 -8 276 277 0
-7 -16 -8 276 -277 0
-7 -16 -8 -276 278 0
-7 -16 -8 -276 -278 0
1 6 14 279 280 0
1 6 14 279 -280 0
1 6 14 -279 281 0
1 6 14 -279 -281 0
-10 -9 3 282 283 0
-10 -9 3 282 -283 0
-10 -9 3 -282 284 0
-10 -9 3 -282 -284 0
-18 20 -12 285 286 0
-18 20 -12 285 -286 0
-18 20 -12 -285 287 0
-18 20 -12 -285 -287 0
-19 -10 -15 288 289 0
-19 -10 -15 288 -289 0
-19 -10 -15 -288 290 0
-19 -10 -15 -288 -290 0
-2 -6 10 291 292 0
-2 -6 10 291 -292 0
-2 -6 10 -291 293 0
-2 -6 10 -291 -293 0
294 295 297 301 309 0
294 295 297 301 -309 0
294 295 297 -301 310 0
294 295 297 -301 -310 0
294 295 -297 302 311 0
294 295 -297 302 -311 0
294 295 -297 -302 312 0
294 295 -297 -302 -312 0
294 -295 298 303 313 0
294 -295 298 303 -313 0
294 -295 298 -303 314 0
294 -295 298 -303 -314 0
294 -295 -298 304 315 0
294 -295 -298 304 -315 0
294 -295 -298 -304 316 0
294 -295 -298 -304 -316 0
-294 296 299 305 317 0
-294 296 299 305 -317 0
-294 296 299 -305 318 0
-294 296 299 -305 -318 0
-294 296 -299 306 319 0
-294 296 -299 306 -319 0
-294 296 -299 -306 320 0
-294 296 -299 -306 -320 0
-294 -296 300 307 321 0
-294 -296 300 307 -321 0
-294 -296 300 -307 322 0
-294 -296 300 -307 -322 0
-294 -296 -300 308 323 0
-294 -296 -300 308 -323 0
-294 -296 -300 -308 324 0
-294 -296 -300 -308 -324 0
325 326 328 332 340 0
325 326 328 332 -340 0
325 326 328 -332 341 0
325 326 328 -332 -341 0
325 326 -328 333 342 0
325 326 -328 333 -342 0
325 326 -328 -333 343 0
325 326 -328 -333 -343 0
325 -326 329 334 344 0
325 -326 329 334 -344 0
325 -326 329 -334 345 0
325 -326 329 -334 -345 0
325 -326 -329 335 346 0
325 -326 -329 335 -346 0
325 -326 -329 -335 347 0
325 -326 -329 -335 -347 0
-325 327 330 336 348 0
-325 327 330 336 -348 0
-325 327 330 -336 349 0
-325 327 330 -336 -349 0
-325 327 -330 337 350 0
-325 327 -330 337 -350 0
-325 327 -330 -337 351 0
-325 327 -330 -337 -351 0
-325 -327 331 338 352 0
-325 -327 331 338 -352 0
-325 -327 331 -338 353 0
-325 -327 331 -338 -353 0
-325 -327 -331 339 354 0
-325 -327 -331 339 -354 0
-325 -327 -331 -339 355 0
-325 -327 -331 -339 -355 0
356 357 359 363 371 0
356 357 359 363 -371 0
356 357 359 -363 372 0
356 357 359 -363 -372 0
356 357 -359 364 373 0
356 357 -359 364 -373 0
356 357 -359 -364 374 0
356 357 -359 -364 -374 0
356 -357 360 365 375 0
356 -357 360 365 -375 0
356 -357 360 -365 376 0
356 -357 360 -365 -376 0
356 -357 -360 366 377 0
356 -357 -360 366 -377 0
356 -357 -360 -366 378 0
356 -357 -360 -366 -378 0
-356 358 361 367 379 0
-356 358 361 367 -379 0
-356 358 361 -367 380 0
-356 358 361 -367 -380 0
-356 358 -361 368 381 0
-356 358 -361 368 -381 0
-356 358 -361 -368 382 0
-356 358 -361 -368 -382 0
-356 -358 362 369 383 0
-356 -358 362 369 -383 0
-356 -358 362 -369 384 0
-356 -358 362 -369 -384 0
-356 -358 -362 370 385 0
-356 -358 -362 370 -385 0
-356 -358 -362 -370 386 0
-356 -358 -362 -370 -386 0

